0.99
0.96
0.95
0.99
0.97
0.98
0.98
0.98
0.96
0.99
0.98
0.98
0.94
0.94
0.93
0.94
0.98
0.97
0.98
0.93
0.94
0.98
0.96
0.99
0.99
0.99
0.93
0.94
0.99
0.99
0.96
0.95
0.97
0.98
0.98
0.99
0.98
0.98
0.99
0.99
0.99
0.99
0.98
0.97
0.98
0.98
0.99
0.99
0.99
0.99
0.99
0.99
0.99
0.99
0.99
0.96
0.99
0.96
0.95
0.99
0.99
0.99
0.99
0.99
0.99
0.99
0.99
0.99
0.97
0.99
0.98
0.98
0.99
0.98
0.99
0.99
0.99
0.99
0.99
0.98
0.99
0.97
0.99
0.99
0.99
0.98
0.99
0.99
0.99
0.98
0.98
0.99
0.99
0.99
0.99
0.99
0.98
0.98
0.99
0.99
0.99
0.98
0.99
0.99
0.99
0.99
0.98
0.98
0.99
0.97
0.99
0.99
0.99
0.98
0.99
0.99
0.97
0.99
0.99
0.98
0.99
0.99
0.99
0.98
0.99
0.98
0.99
0.97
0.94
0.98
0.98
0.99
0.99
0.99
0.99
0.99
0.99
0.99
0.99
0.99
0.97
0.99
0.99
0.99
0.98
0.98
0.97
0.99
0.99
0.99
0.99
0.99
0.98
0.96
0.98
0.99
0.98
0.98
0.98
0.99
0.98
0.99
0.97
0.98
0.98
0.99
0.98
0.97
0.99
0.98
0.99
0.98
0.99
0.99
0.98
0.99
0.97
0.99
0.97
0.97
0.99
0.98
0.99
0.99
0.99
0.99
0.98
0.98
0.99
0.99
0.98
0.96
0.99
0.97
0.99
0.98
0.98
0.98
0.99
0.99
0.99
0.99
0.99
0.99
0.99
0.99
0.97
0.99
0.99
0.99
0.99
0.99
0.97
0.99
0.99
0.99
0.99
0.99
0.97
0.97
0.98
0.99
0.97
0.98
0.99
0.99
0.98
0.96
0.99
0.99
0.99
0.99
0.99
0.99
0.98
0.99
0.99
0.98
0.99
0.99
0.99
0.99
0.99
0.99
0.99
0.98
0.99
0.99
0.97
0.98
0.99
0.98
0.98
0.99
0.99
0.98
0.98
0.98
0.99
0.97
0.98
0.98
0.98
0.97
0.99
0.95
0.99
0.99
0.99
0.98
0.99
0.99
0.99
0.99
0.99
0.99
0.99
0.99
0.99
0.99
0.98
0.99
0.97
0.99
0.99
0.99
0.98
0.99
0.98
0.99
0.96
0.99
0.99
0.99
0.99
0.99
0.99
0.99
0.99
0.99
0.99
0.99
0.99
0.99
0.99
0.98
0.98
0.99
0.99
0.99
0.99
0.97
0.99
0.99
0.98
0.99
0.99
0.98
0.99
0.98
0.99
0.99
0.99
0.99
0.98
0.99
0.99
0.99
0.98
0.99
0.99
0.99
0.98
0.99
0.99
0.99
0.99
0.99
0.99
0.97
0.99
0.99
0.96
0.99
0.99
0.99
0.98
0.98
0.99
0.98
0.99
0.99
0.94
0.99
0.99
0.99
0.99
0.97
0.99
0.99
0.98
0.98
0.99
0.99
0.99
0.99
0.99
0.99
0.98
0.99
0.97
0.99
0.99
0.99
0.99
0.99
0.99
0.99
0.99
0.99
0.99
0.98
0.99
0.99
0.98
0.99
0.99
0.98
0.99
0.99
0.98
0.99
0.99
0.98
0.98
0.99
0.97
0.99
0.98
0.99
0.99
0.99
0.99
0.96
0.99
0.99
0.99
0.99
0.99
0.98
0.99
0.99
0.99
0.99
0.99
0.98
0.99
0.99
0.99
0.99
0.98
0.98
0.99
0.98
0.99
0.99
0.99
0.99
0.97
0.99
0.99
0.99
0.99
0.99
0.99
0.99
0.99
0.99
0.99
0.99
0.99
0.98
0.99
0.99
0.97
0.97
0.97
0.98
0.98
0.96
0.98
0.97
0.99
0.99
0.98
0.98
0.99
0.99
0.98
0.99
0.98
0.99
0.99
0.99
0.98
0.99
0.98
0.98
0.98
0.98
0.99
0.99
0.99
0.99
0.99
0.99
0.99
0.99
0.98
0.98
0.96
0.97
0.98
0.98
0.99
0.99
0.96
0.99
0.98
0.98
0.99
0.99
0.99
0.99
0.98
1.0
0.98
0.99
0.99
0.99
0.98
0.97
0.97
0.99
0.98
0.97
0.99
0.99
0.99
0.99
0.98
0.97
0.97
0.98
0.98
0.99
0.98
0.99
0.99
0.98
0.99
0.99
0.98
0.99
0.98
0.99
0.99
0.99
0.98
0.97
0.99
0.98
0.99
0.99
0.99
0.99
0.99
0.97
0.99
0.99
0.99
0.99
0.99
0.99
0.94
0.98
0.99
0.98
0.99
0.99
0.99
0.99
0.98
0.99
0.98
0.98
0.99
0.99
0.99
0.98
0.99
0.98
0.99
0.97
0.98
0.99
0.99
0.99
0.98
0.99
0.99
0.98
0.99
0.96
0.99
0.96
0.96
0.97
0.98
0.98
0.99
0.98
0.99
0.97
0.99
0.99
0.99
0.96
0.97
0.99
0.99
0.99
0.98
0.97
0.99
0.99
0.97
0.98
0.99
0.99
0.99
0.98
0.99
0.96
0.98
0.98
0.99
0.98
0.98
0.97
0.99
0.99
0.99
0.98
0.99
0.98
0.99
0.96
0.99
0.98
0.99
0.99
0.99
0.99
0.98
0.97
0.99
0.99
0.99
0.99
0.99
0.99
0.99
0.99
0.99
0.99
0.99
0.99
0.99
0.95
0.97
0.99
0.98
0.98
0.99
0.99
0.99
0.99
0.98
0.99
0.98
0.98
0.98
0.98
0.99
0.99
0.99
0.99
0.99
0.98
0.98
0.99
0.99
0.99
0.97
0.99
0.99
0.98
0.98
0.97
0.99
0.97
0.98
0.99
0.99
0.99
0.99
0.98
0.99
0.99
0.98
0.98
0.99
0.99
0.98
0.99
0.99
0.99
0.99
0.99
0.99
0.98
0.99
0.99
0.99
0.99
0.98
0.99
0.99
0.99
0.98
0.99
0.99
0.99
0.99
0.99
0.97
0.99
0.99
0.96
0.99
0.99
0.99
0.99
0.99
0.99
0.98
0.99
0.98
0.96
0.98
0.99
0.99
0.99
0.99
0.98
0.99
0.99
0.96
0.99
0.96
0.99
0.98
0.99
0.98
0.99
0.98
0.99
0.99
0.97
0.99
0.99
0.99
0.98
0.98
0.99
0.98
0.98
0.98
0.98
0.99
0.94
0.99
0.99
0.99
0.99
0.97
0.97
0.99
0.99
0.99
0.98
0.99
0.99
0.99
0.99
0.99
0.99
0.99
0.99
0.99
0.99
0.99
0.99
0.99
0.98
0.99
0.99
0.99
0.98
0.99
0.99
0.99
0.98
0.99
0.99
0.98
0.99
0.99
0.99
0.98
0.99
0.99
0.99
0.94
0.99
0.98
0.99
0.99
0.96
0.98
0.98
0.99
0.99
0.99
0.99
0.99
0.99
0.99
0.99
0.98
0.96
0.99
0.99
0.99
0.99
0.99
0.98
0.98
0.99
0.99
0.99
0.97
0.99
0.97
0.99
0.99
0.98
0.98
0.99
0.99
0.99
0.97
0.97
0.99
0.99
0.98
0.99
0.99
0.99
0.99
0.99
0.99
0.99
0.99
0.99
0.97
0.98
0.99
0.98
0.99
0.99
0.99
0.99
0.99
0.99
0.99
0.99
0.99
0.99
0.99
0.99
0.99
0.99
0.96
0.99
0.99
0.99
0.99
0.98
0.99
0.99
0.98
0.99
0.98
0.99
0.98
0.98
0.99
0.98
0.99
0.97
0.99
0.99
0.99
0.99
0.99
0.96
0.95
0.99
0.99
0.99
0.99
0.98
0.99
0.99
0.99
0.98
0.99
0.99
0.99
0.99
0.98
0.98
0.99
0.98
0.99
0.99
0.99
0.99
0.99
0.99
0.99
0.99
0.99
0.99
0.99
0.99
0.99
0.99
0.97
0.99
0.99
0.98
0.98
0.97
0.99
0.99
0.98
0.99
0.98
0.99
0.98
0.99
0.99
0.98
0.99
0.99
0.98
0.99
0.99
0.98
0.99
0.99
0.99
0.99
0.98
0.99
0.98
0.99
0.99
0.98
0.99
0.99
0.99
0.99
0.99
0.98
0.99
0.99
0.99
0.98
0.99
0.98
0.99
0.99
0.99
0.99
0.99
0.98
0.97
0.99
0.98
0.99
0.99
0.99
0.98
0.99
0.99
0.98
0.94
0.99
0.99
0.98
0.99
0.99
0.99
0.97
0.98
0.97
0.99
0.98
0.97
0.99
0.96
0.96
0.99
0.99
0.98
0.97
0.96
0.99
0.98
0.97
0.99
0.98
0.99
0.97
0.96
0.93
0.99
0.98
0.99
0.99
0.99
0.94
0.97
0.97
0.99
0.95
0.99
0.98
0.95
0.96

6
6
6
5
5
5
5
5
6
5
5
5
6
6
6
6
7
7
7
8
8
7
6
5
6
7
7
7
6
6
7
6
6
6
5
5
5
5
6
6
6
5
5
5
5
5
5
5
6
7
6
7
7
6
6
6
6
7
7
6
7
7
6
6
5
5
4
5
5
5
6
6
5
5
4
3
4
4
5
6
7
7
6
6
6
7
6
7
7
7
6
6
7
7
6
6
6
5
4
5
6
6
6
5
4
4
3
2
3
4
5
6
6
7
6
5
6
7
7
8
8
7
7
7
7
7
6
7
6
6
5
6
6
6
6
6
5
4
4
3
4
4
5
5
6
7
6
6
6
7
7
7
7
8
7
8
7
7
7
6
6
6
6
6
6
6
7
6
5
5
5
5
5
5
6
5
6
6
7
7
7
7
6
7
6
7
7
7
7
7
7
7
6
6
6
7
7
7
6
5
5
5
5
5
5
6
6
5
4
5
6
6
7
7
7
7
6
7
7
7
6
6
7
6
6
6
7
7
7
6
6
5
4
5
6
6
6
7
6
5
5
5
6
6
7
8
8
7
7
6
5
6
6
6
7
6
6
7
7
8
7
6
6
5
3
5
6
6
7
7
6
6
6
6
6
6
7
8
8
7
7
6
6
6
5
6
6
6
7
7
8
7
7
6
5
5
5
5
6
7
7
8
7
6
6
6
6
7
7
7
7
7
6
6
6
6
5
6
7
7
7
6
7
7
7
6
5
5
6
6
6
7
7
7
6
6
7
7
7
7
7
7
6
6
6
7
7
7
6
7
6
6
7
7
7
7
7
6
6
6
7
7
6
7
6
6
6
6
6
6
7
7
6
6
5
5
6
7
7
6
6
6
6
5
7
7
6
7
7
7
7
6
7
7
7
7
6
5
5
4
5
5
6
6
5
5
5
6
6
7
6
6
5
6
6
6
7
7
7
6
7
8
7
7
7
7
7
6
5
4
3
3
4
4
5
6
5
5
5
5
6
6
7
7
7
7
7
6
5
6
6
6
6
7
7
7
7
7
7
6
5
3
2
1
2
3
4
5
5
5
3
5
6
7
7
7
6
7
7
7
6
6
6
7
7
7
7
7
7
7
7
6
5
3
1
0
1
3
4
5
6
5
4
5
6
7
7
7
7
7
7
8
6
5
6
6
7
6
6
7
6
7
7
6
5
3
2
1
2
3
4
6
6
6
5
5
6
7
7
7
7
7
7
7
7
6
6
6
6
6
5
6
6
7
7
6
5
4
3
3
3
4
5
6
7
6
6
6
7
7
6
7
7
7
7
8
7
7
7
7
7
6
6
6
6
6
6
7
6
5
4
4
4
5
5
6
7
7
7
7
6
6
6
7
7
8
7
7
7
7
7
7
7
6
6
6
5
6
6
6
6
6
5
5
5
6
6
7
7
7
7
6
6
6
6
7
7
7
7
7
7
7
7
7
6
6
6
6
6
6
6
7
7
7
6
6
6
5
6
7
7
6
6
6
6
6
6
7
6
7
7
7
7
7
6
7
7
7
7
6
6
6
5
6
7
7
7
6
5
5
6
6
7
7
6
5
6
6
6
7
7
6
6
6
6
7
6
7
7
7
7
7
6
5
6
7
8
8
7
6
5
4
6
6
7
6
5
5
5
6
6
7
7
7
6
6
6
6
6
7
8
7
7
6
6
6
6
7
8
8
7
6
4
5
6
6
6
6
4
3
4
5
6
6
6
7
6
7
5
6
6
7
8
7
7
6
4
5
6
7
8
8
7
6
5
5
6
6
6
5
5
4
5
5
5
5
5
6
6
7
5
5
6
7
7
7
6
5
5
5
7
7
7
7
6
6
6
6
6
5
5
4
5
5
5
4
5
4
5
5
5
6
5
6
5
6
7
7
7
6
6
6
6
6
7
8
7
6
7
7
6
5
4
3
4
5
5
5
5
4
4
5
5
6
6
6
6
6
6
7
6
6
7
7
7
6
7
7
6
6
7
7
6
6
5
4
4
5
6
6
6
6
5
5
5
6
6
6
6
5
7
7
7
7
7
7
7
7
7
7
6
6
7
7
7
6
5
5
5
6
7
7
7
6
6
5
6
6
6
7
7
6
7
7
7
7
6
6
6
6
6
6
6
6
7
6
7
7
6
6
5
6
7
6
7
6
6
6
7
7
7
7
8
7
7
7
6
6
5
6
6
6
6
6
6
7
8
7
8
7
7
6
5
6
7
7
7
7
6
7
8
8
7
7
8
8
7
7
6
7
6
6
7
7
6
6
6
7
8
8
8
8
7
6
6
7
7
7
7
7
6
7
8
8
